GLPSOL--GLPK LP/MIP Solver 5.0
Parameter(s) specified in the command line:
 --lp ../modeles/3_304.lp --log 3_304.log
Reading problem data from '../modeles/3_304.lp'...
925 rows, 1830 columns, 6393 non-zeros
912 integer variables, all of which are binary
2764 lines were read
GLPK Integer Optimizer 5.0
925 rows, 1830 columns, 6393 non-zeros
912 integer variables, all of which are binary
Preprocessing...
906 constraint coefficient(s) were reduced
925 rows, 1827 columns, 6390 non-zeros
912 integer variables, all of which are binary
Scaling...
 A: min|aij| =  1.731e-04  max|aij| =  4.000e+00  ratio =  2.310e+04
GM: min|aij| =  8.111e-02  max|aij| =  1.233e+01  ratio =  1.520e+02
EQ: min|aij| =  6.579e-03  max|aij| =  1.000e+00  ratio =  1.520e+02
2N: min|aij| =  5.540e-03  max|aij| =  1.747e+00  ratio =  3.153e+02
Constructing initial basis...
Size of triangular part is 925
Solving LP relaxation...
GLPK Simplex Optimizer 5.0
925 rows, 1827 columns, 6390 non-zeros
      0: obj =   6.000000000e+00 inf =   1.450e+01 (7)
     56: obj =   4.451226111e-01 inf =   0.000e+00 (0)
*   202: obj =  -1.732002420e+00 inf =   9.831e-16 (0)
OPTIMAL LP SOLUTION FOUND
Integer optimization begins...
Long-step dual simplex will be used
+   202: mip =     not found yet >=              -inf        (1; 0)
+   348: >>>>>  -1.732002420e+00 >=  -1.732002420e+00 < 0.1% (147; 0)
+   348: mip =  -1.732002420e+00 >=     tree is empty   0.0% (0; 293)
INTEGER OPTIMAL SOLUTION FOUND
Time used:   0.2 secs
Memory used: 2.7 Mb (2844251 bytes)
